p cnf 15 36
1 0
-7 11 0
-6 12 0
-12 6 0
-11 7 0
10 -6 15 -12 0
8 -6 14 -10 0
8 -6 14 4 0
10 -6 15 4 0
8 -6 -14 -9 0
10 -6 -15 -11 0
10 -6 -15 2 0
8 -6 -14 2 0
-8 -4 10 0
-10 -4 12 0
-10 -2 11 0
-8 -2 9 0
-10 6 0
-8 6 0
-8 5 0
-7 0
6 0
-5 8 0
2 4 0
5 0
-2 3 0
-3 0
-2 1 0
-4 1 0
1 -4 -1 0
1 -2 -3 0
-4 1 0
-1 -13 3 0
-1 13 1 0
-1 13 4 0
-1 -13 2 0
